# Generated by ConicBenchmarkUtilities.jl
VER
2

OBJSENSE
MIN

VAR
17 1
F 17

INT
5
9
10
11
12
13

CON
50 40
EXP 3
EXP 3
EXP 3
L= 1
EXP 3
L+ 1
L+ 1
EXP 3
L+ 1
L+ 1
L+ 1
L+ 1
L+ 1
L+ 1
L+ 1
L+ 1
L+ 1
L+ 1
L= 1
L+ 1
L+ 1
L+ 1
L+ 1
L+ 1
L+ 1
L+ 1
L+ 1
L+ 1
L+ 1
L+ 1
L+ 1
L+ 1
L+ 1
L+ 1
L+ 1
L+ 1
L+ 1
L+ 1
L+ 1
L+ 1

OBJACOORD
1
14 1.0

ACOORD
83
2 0 1.0
9 0 -10.0
22 0 1.0
23 0 1.0
30 0 1.0
31 0 -1.0
0 1 1.0
9 1 1.0
14 1 -1.0
5 2 0.833333
9 2 -15.0
17 2 0.833333
22 2 1.0
23 2 1.0
32 2 1.0
33 2 -1.0
3 3 1.0
9 3 1.0
8 4 1.0
9 4 -60.0
6 5 1.0
9 5 15.0
10 5 1.0
20 5 -1.0
22 5 -1.0
23 5 -1.0
25 5 1.0
26 5 0.5
27 5 0.2
36 5 1.0
6 6 1.0
9 6 5.0
10 6 1.0
20 6 -1.0
26 6 -1.0
27 6 1.0
37 6 1.0
9 7 -15.0
19 7 -1.25
21 7 2.0
22 7 2.0
23 7 0.75
24 7 -1.0
25 7 -2.0
34 7 1.0
35 7 -1.0
9 8 -20.0
21 8 -2.0
22 8 -2.0
23 8 -2.0
24 8 1.0
25 8 2.0
38 8 1.0
39 8 -1.0
9 9 5.0
14 9 10.0
28 9 1.0
40 9 1.0
41 9 -1.0
9 10 8.0
18 10 10.0
28 10 1.0
42 10 1.0
43 10 -1.0
9 11 6.0
19 11 10.0
44 11 1.0
45 11 -1.0
9 12 10.0
20 12 10.0
29 12 -1.0
46 12 1.0
47 12 -1.0
9 13 6.0
21 13 10.0
29 13 -1.0
48 13 1.0
49 13 -1.0
9 14 -1.0
12 15 1.0
13 15 1.0
15 16 1.0
18 16 -1.0

BCOORD
21
1 1.0
4 1.0
6 1.0
7 1.0
9 140.0
10 1.0
11 1.0
14 1.0
16 1.0
18 1.0
28 -1.0
29 1.0
31 2.0
33 2.0
35 2.0
39 3.0
41 1.0
43 1.0
45 1.0
47 1.0
49 1.0
